100
34 4
20 0
39 0
33 4
25 1
18 4
5 3
31 4
30 0
6 1
21 3
21 4
43 2
19 3
32 4
36 0
22 4
16 4
35 4
39 3
28 0
6 0
27 3
40 4
27 2
19 4
7 0
43 3
9 0
39 4
27 0
13 0
12 4
7 2
44 2
42 4
44 4
38 3
27 1
17 4
10 2
15 1
2 1
15 4
44 0
35 1
13 4
26 4
37 4
41 1
32 0
21 0
20 3
28 4
20 4
37 3
18 0
38 0
3 0
39 2
7 3
3 3
4 4
8 4
37 0
29 0
25 4
33 3
42 3
3 2
41 4
38 4
31 0
14 4
19 0
43 4
9 4
8 0
40 0
40 3
43 1
39 1
16 0
33 1
4 0
22 0
14 0
23 4
15 2
10 3
10 0
0 0
0 4
41 0
15 3
29 3
5 4
33 0
24 0
36 1

